
List of user-set options:

                                    Name   Value                used
                           linear_solver = ma57                  yes
                  ma57_automatic_scaling = yes                   yes
                                max_iter = 10000                 yes
                             mu_strategy = adaptive              yes
                             output_file = DynamicOptimization_FtildeState_vAIPOPTinfo.txt  yes
                             print_level = 5                     yes
                      print_user_options = yes                   yes
                                     tol = 1e-006                yes
This is Ipopt version 3.11.0, running with linear solver ma57.

Number of nonzeros in equality constraint Jacobian...:   373231
Number of nonzeros in inequality constraint Jacobian.:    73960
Number of nonzeros in Lagrangian Hessian.............:   131274

Total number of variables............................:    76020
                     variables with only lower bounds:        0
                variables with lower and upper bounds:    76020
                     variables with only upper bounds:        0
Total number of equality constraints.................:    57487
Total number of inequality constraints...............:    36981
        inequality constraints with only lower bounds:    18447
   inequality constraints with lower and upper bounds:       87
        inequality constraints with only upper bounds:    18447

iter    objective    inf_pr   inf_du lg(mu)  ||d||  lg(rg) alpha_du alpha_pr  ls
   0 9.9999900e-003 4.81e+002 1.00e+000   0.0 0.00e+000    -  0.00e+000 0.00e+000   0
   1 3.1597948e+000 1.37e+003 2.03e+003  -0.1 9.17e+000    -  3.46e-003 8.74e-001f  1
   2 2.0156741e+002 8.06e+002 5.74e+002   0.4 2.46e+002    -  7.33e-001 8.06e-001f  1
   3 2.2803329e+002 3.76e+002 1.36e+004   1.0 2.65e+001   2.0 7.52e-001 1.00e+000h  1
   4 2.2805649e+002 3.67e+002 1.39e+004   1.2 4.17e+001   2.4 1.00e+000 2.17e-002h  1
   5 2.2806418e+002 3.63e+002 1.11e+005   1.1 5.23e+000   2.9 9.85e-001 1.16e-002h  1
   6 2.2853671e+002 1.30e+002 1.74e+004   0.6 5.98e+000   2.4 9.99e-001 6.73e-001h  1
   7 2.2880777e+002 4.64e+001 3.97e+003   0.0 1.23e+000   1.9 9.99e-001 1.00e+000h  1
   8 2.2881054e+002 1.30e+001 7.17e+002  -0.5 5.85e-001   1.4 9.75e-001 1.00e+000h  1
   9 2.2881008e+002 3.71e+001 4.04e+001  -0.9 1.94e+000   0.9 9.98e-001 1.00e+000f  1
iter    objective    inf_pr   inf_du lg(mu)  ||d||  lg(rg) alpha_du alpha_pr  ls
  10 2.2865923e+002 7.74e+000 2.64e+001  -2.0 6.60e-001   0.5 9.80e-001 1.00e+000h  1
  11 2.2822064e+002 5.50e-001 1.54e+000  -3.6 4.39e-001  -0.0 1.00e+000 1.00e+000h  1
  12 2.2692132e+002 1.74e+000 4.22e-001  -5.1 1.30e+000  -0.5 1.00e+000 1.00e+000f  1
  13 2.2409924e+002 7.84e+000 4.15e-001  -4.9 3.80e+000  -1.0 1.00e+000 7.42e-001f  1
  14 2.1329177e+002 1.22e+002 3.90e-001  -4.4 1.08e+001  -1.4 1.00e+000 1.00e+000f  1
  15 1.9071212e+002 2.97e+001 3.48e-001  -2.4 2.81e+001  -1.9 1.00e+000 8.05e-001f  1
  16 1.8403847e+002 5.46e+001 5.06e-001  -2.8 9.31e+000  -1.5 1.00e+000 7.16e-001f  1
  17 1.7135482e+002 6.39e+001 8.02e+000  -3.0 2.70e+001  -2.0 1.00e+000 4.69e-001f  1
  18 1.3882036e+002 3.80e+001 1.38e+001  -2.0 6.14e+001  -2.4 3.10e-001 5.30e-001f  1
  19 1.0710918e+002 4.11e+001 1.14e+001  -2.1 1.02e+002  -2.9 1.18e-001 3.11e-001f  1
iter    objective    inf_pr   inf_du lg(mu)  ||d||  lg(rg) alpha_du alpha_pr  ls
  20 1.0396173e+002 2.62e+001 1.63e+000  -2.8 3.66e+000  -1.6 1.00e+000 8.61e-001h  1
  21 9.7028704e+001 1.55e+001 6.70e-001  -2.9 1.61e+001  -2.1 9.96e-001 4.31e-001f  1
  22 8.7252890e+001 1.14e+001 5.22e-001  -3.4 3.68e+001  -2.5 1.00e+000 2.66e-001f  1
  23 8.1925685e+001 7.02e+000 3.02e-001  -3.5 1.36e+001  -2.1 1.00e+000 3.91e-001f  1
  24 7.4698121e+001 5.38e+000 5.02e-001  -3.7 3.06e+001  -2.6 1.00e+000 2.36e-001f  1
  25 7.1464946e+001 3.83e+000 1.12e+000  -3.5 1.13e+001  -2.2 1.00e+000 2.87e-001f  1
  26 6.6634560e+001 9.97e+000 9.94e-001  -3.7 2.60e+001  -2.7 1.00e+000 1.86e-001f  1
  27 6.5533622e+001 9.91e-001 5.23e-002  -4.4 1.10e+000  -1.3 1.00e+000 1.00e+000h  1
  28 6.4092073e+001 4.06e+000 4.09e-001  -3.5 4.05e+000  -1.8 1.00e+000 3.56e-001f  1
  29 6.2787788e+001 2.36e-001 5.65e-002  -3.0 1.34e+000  -1.4 1.00e+000 9.75e-001h  1
iter    objective    inf_pr   inf_du lg(mu)  ||d||  lg(rg) alpha_du alpha_pr  ls
  30 5.9938475e+001 1.68e+000 2.54e-001  -4.0 4.30e+000  -1.9 1.00e+000 6.62e-001f  1
  31 5.6996076e+001 1.32e+000 3.83e-001  -3.2 1.02e+001  -2.3 1.00e+000 2.88e-001f  1
  32 4.9136542e+001 1.62e+001 3.91e-001  -3.3 2.24e+001  -2.8 1.47e-001 3.51e-001f  1
  33 5.3873205e+001 1.46e+002 1.25e+000  -1.3 6.98e+001  -2.4 1.24e-001 1.88e-001f  1
  34 5.3892002e+001 1.17e+002 8.16e-001  -2.3 2.07e+000  -1.1 6.82e-001 2.00e-001h  1
  35 5.3969506e+001 9.02e+001 6.33e+000  -2.3 3.65e+000  -0.6 3.31e-001 2.28e-001h  1
  36 5.4003933e+001 6.46e+001 5.39e+001  -2.3 7.14e+000  -1.1 6.15e-002 2.85e-001h  1
  37 5.4313708e+001 6.17e+001 2.23e+001  -2.3 1.07e+000   0.2 9.99e-001 1.00e+000h  1
  38 5.4217051e+001 1.77e+001 4.95e+001  -2.3 5.70e-001  -0.2 1.00e+000 1.00e+000h  1
  39 5.3814334e+001 1.29e+000 7.07e+000  -3.9 4.03e-001  -0.7 1.00e+000 1.00e+000h  1
iter    objective    inf_pr   inf_du lg(mu)  ||d||  lg(rg) alpha_du alpha_pr  ls
  40 5.2625836e+001 7.84e-001 2.10e-001  -5.6 1.19e+000  -1.2 1.00e+000 1.00e+000f  1
  41 5.1526060e+001 6.58e-001 1.40e-001  -5.2 3.26e+000  -1.7 1.00e+000 3.37e-001f  1
  42 5.0646287e+001 5.99e-001 5.80e-001  -5.2 8.20e+000  -2.2 1.00e+000 1.07e-001f  1
  43 4.9485133e+001 5.54e-001 9.12e-001  -5.4 1.81e+001  -2.6 1.00e+000 6.42e-002f  1
  44 4.8773235e+001 5.08e-001 1.31e+000  -5.8 7.39e+000  -2.2 1.00e+000 9.63e-002f  1
  45 4.7132997e+001 4.32e-001 1.16e+000  -5.8 1.63e+001  -2.7 1.00e+000 1.01e-001f  1
  46 4.6048756e+001 4.06e-001 1.32e+000  -4.6 6.74e+000  -2.3 1.00e+000 1.61e-001f  1
  47 4.2847265e+001 1.16e+000 7.28e-001  -4.4 1.55e+001  -2.7 1.00e+000 2.06e-001f  1
  48 4.0982394e+001 1.40e+000 6.24e-001  -3.7 5.99e+000  -2.3 1.00e+000 3.11e-001f  1
  49 3.6752892e+001 4.84e+000 1.51e-001  -3.7 1.34e+001  -2.8 9.95e-001 3.15e-001f  1
iter    objective    inf_pr   inf_du lg(mu)  ||d||  lg(rg) alpha_du alpha_pr  ls
  50 3.5621371e+001 5.02e+000 5.10e-001  -4.0 4.87e+000  -2.4 1.00e+000 2.32e-001f  1
  51 3.4359760e+001 3.04e+000 2.17e-001  -4.0 1.76e+000  -1.9 1.00e+000 7.19e-001h  1
  52 3.3803111e+001 2.74e+000 2.05e-001  -4.8 4.82e+000  -2.4 1.00e+000 1.16e-001f  1
  53 3.1215796e+001 6.34e+001 2.41e-001  -4.7 1.74e+001  -2.9 1.00e+000 2.30e-001f  1
  54 3.0028872e+001 3.82e+001 4.02e-001  -2.7 2.95e+000  -2.5 1.00e+000 4.03e-001f  1
  55 2.8384462e+001 1.34e+000 1.50e-002  -3.7 1.64e+000  -2.0 1.00e+000 1.00e+000h  1
  56 2.6396613e+001 2.62e+000 1.37e-001  -4.5 3.94e+000  -2.5 1.00e+000 5.04e-001f  1
  57 2.5311219e+001 3.10e+000 4.07e-001  -4.1 7.82e+000  -3.0 1.00e+000 1.39e-001f  1
  58 2.3489518e+001 2.68e+000 5.40e-002  -3.8 3.20e+000  -2.6 1.00e+000 5.70e-001f  1
  59 2.2917895e+001 3.67e+001 7.29e-001  -2.4 6.99e+000  -3.0 4.18e-001 5.57e-001f  1
iter    objective    inf_pr   inf_du lg(mu)  ||d||  lg(rg) alpha_du alpha_pr  ls
  60 2.0789554e+001 1.96e+001 2.94e-001  -2.7 2.17e+000  -2.6 1.00e+000 9.81e-001h  1
  61 1.9516323e+001 4.57e+000 4.19e-001  -3.9 1.27e+000  -2.2 9.91e-001 1.00e+000h  1
  62 1.9098578e+001 3.33e+000 1.49e-001  -4.4 4.31e-001  -1.8 1.00e+000 9.69e-001h  1
  63 1.8690867e+001 2.22e+000 4.53e-001  -4.6 1.05e+000  -2.2 1.00e+000 3.87e-001h  1
  64 1.8160811e+001 1.76e+000 7.90e-001  -4.6 2.45e+000  -2.7 1.00e+000 2.17e-001f  1
  65 1.7661873e+001 7.98e-001 3.57e-001  -4.1 9.01e-001  -2.3 1.00e+000 5.54e-001h  1
  66 1.8621729e+001 9.66e+000 1.34e+000  -2.1 1.09e+001  -2.8 7.23e-002 1.97e-001f  1
  67 1.7500686e+001 3.67e+000 2.13e-001  -3.3 1.12e+000  -2.3 1.00e+000 1.00e+000h  1
  68 1.7099804e+001 1.28e+000 2.41e-001  -3.8 4.38e-001  -1.9 9.93e-001 9.15e-001h  1
  69 1.6971647e+001 2.51e-001 1.12e-001  -3.5 2.01e-001  -1.5 1.00e+000 1.00e+000h  1
iter    objective    inf_pr   inf_du lg(mu)  ||d||  lg(rg) alpha_du alpha_pr  ls
  70 1.6821830e+001 2.52e-001 9.51e-002  -3.8 6.88e-001  -2.0 9.91e-001 3.40e-001h  1
  71 1.6524033e+001 2.56e-001 2.70e-001  -3.3 1.21e+000  -2.4 7.41e-001 3.26e-001f  1
  72 1.4892196e+001 1.56e+000 1.43e+000  -3.4 2.88e+000  -2.9 9.37e-001 7.28e-001f  1
  73 1.4327799e+001 6.34e-001 4.37e-001  -3.4 5.75e-001  -2.5 1.00e+000 9.82e-001h  1
  74 1.4099808e+001 2.80e+000 3.20e-001  -3.7 3.49e-001  -2.1 1.00e+000 8.47e-001h  1
  75 1.3925519e+001 2.19e+000 3.51e-001  -3.7 1.82e+000  -2.6 1.00e+000 2.39e-001h  1
  76 1.3239249e+001 2.40e+000 2.62e-001  -4.2 1.71e+000  -3.0 1.00e+000 4.02e-001f  1
  77 1.1275317e+001 3.69e+000 5.97e-002  -3.3 3.37e+000  -3.5 7.93e-001 7.28e-001f  1
  78 1.0476255e+001 2.36e+000 6.22e-002  -3.9 1.29e+000  -3.1 1.00e+000 9.89e-001h  1
  79 9.4814805e+000 1.23e+002 8.22e-002  -3.5 1.82e+001  -3.6 1.00e+000 7.55e-001h  1
iter    objective    inf_pr   inf_du lg(mu)  ||d||  lg(rg) alpha_du alpha_pr  ls
  80 1.0691422e+001 1.37e+002 2.56e+000  -2.1 1.68e+001  -3.1 1.00e+000 2.76e-001f  1
  81 1.3155511e+001 3.25e+002 4.71e+000  -2.2 1.26e+001  -3.6 2.66e-001 1.00e+000f  1
  82 1.3875475e+001 2.13e+002 3.28e+000  -2.2 2.62e+001  -4.1 1.88e-001 3.67e-001f  1
  83 1.3898511e+001 1.64e+002 2.92e+000  -2.2 4.01e+000  -1.9 1.00e+000 2.33e-001h  1
  84 1.3901469e+001 9.71e+001 6.01e+000  -2.2 3.01e+000  -1.4 1.00e+000 4.19e-001h  1
  85 1.3912511e+001 5.13e+001 6.31e+001  -2.2 4.45e+000  -1.0 1.00e+000 4.78e-001h  1
  86 1.3928818e+001 3.85e+001 5.19e+001  -2.2 1.93e+000  -0.6 6.30e-001 2.51e-001h  1
  87 1.4126989e+001 1.23e+002 3.56e+002  -2.2 3.34e+000  -1.1 7.70e-002 1.00e+000h  1
  88 1.4108725e+001 3.18e+001 1.79e+002  -2.2 3.38e+000   0.3 1.00e+000 4.01e-001h  1
  89 1.4174136e+001 1.08e+001 2.54e+002  -2.2 1.45e+000  -0.2 3.31e-001 1.00e+000h  1
iter    objective    inf_pr   inf_du lg(mu)  ||d||  lg(rg) alpha_du alpha_pr  ls
  90 1.4149363e+001 1.39e+000 9.65e+000  -3.2 2.97e-001  -0.7 1.00e+000 1.00e+000h  1
  91 1.4034079e+001 4.15e-002 2.19e-001  -4.5 1.15e-001  -1.2 1.00e+000 1.00e+000h  1
  92 1.3715673e+001 8.54e-002 7.45e-003  -5.9 3.18e-001  -1.6 1.00e+000 1.00e+000f  1
  93 1.3399101e+001 1.49e-001 6.71e-003  -5.0 7.36e-001  -2.1 1.00e+000 4.30e-001f  1
  94 1.3078519e+001 2.17e-001 6.09e-003  -5.0 1.48e+000  -2.6 1.00e+000 2.17e-001f  1
  95 1.2668191e+001 3.24e-001 5.42e-003  -5.2 2.62e+000  -3.1 1.00e+000 1.68e-001f  1
  96 1.2345752e+001 4.21e-001 4.55e-003  -4.6 1.15e+000  -2.6 1.00e+000 2.98e-001h  1
  97 1.1934037e+001 4.53e+000 3.80e-003  -4.6 2.59e+000  -3.1 1.00e+000 2.34e-001h  1
  98 1.1699108e+001 4.07e+000 1.26e-002  -3.9 1.04e+000  -2.7 1.00e+000 3.65e-001h  1
  99 1.1268457e+001 3.91e+000 4.60e-002  -3.1 2.29e+000  -3.2 1.00e+000 6.65e-001h  1
iter    objective    inf_pr   inf_du lg(mu)  ||d||  lg(rg) alpha_du alpha_pr  ls
 100 1.0085738e+001 1.46e+000 4.07e-003  -3.3 3.13e+000  -3.6 1.00e+000 9.28e-001h  1
 101 1.0137565e+001 1.08e+000 8.63e-003  -5.0 2.70e-001  -2.3 9.89e-001 1.00e+000h  1
 102 1.0057177e+001 7.13e+000 6.43e-002  -4.6 1.16e+000  -2.8 8.91e-001 3.60e-001h  1
 103 9.6906712e+000 2.02e+000 7.50e-003  -3.9 1.29e+000  -3.3 1.00e+000 9.18e-001h  1
 104 9.6796743e+000 1.91e+001 4.22e-001  -3.1 4.59e+000  -3.7 4.68e-001 6.30e-001f  1
 105 9.6632028e+000 3.51e+001 8.46e-001  -3.5 1.21e+000  -2.4 9.32e-001 1.00e+000h  1
 106 9.4888551e+000 6.17e+000 2.10e-001  -3.8 7.44e-001  -2.9 1.00e+000 9.80e-001h  1
 107 9.2316862e+000 1.11e+000 1.91e-002  -3.8 1.23e+000  -3.4 1.00e+000 9.54e-001h  1
 108 8.9063532e+000 3.37e+000 4.71e-003  -3.6 2.23e+000  -3.8 1.00e+000 1.00e+000h  1
 109 8.1515389e+000 5.60e+000 6.84e-003  -4.1 2.87e+000  -4.3 1.00e+000 9.93e-001h  1
iter    objective    inf_pr   inf_du lg(mu)  ||d||  lg(rg) alpha_du alpha_pr  ls
 110 7.9874237e+000 1.34e+000 1.12e-003  -4.5 9.50e-001  -3.9 1.00e+000 1.00e+000h  1
 111 7.4096624e+000 1.45e+001 2.23e-003  -4.7 1.89e+000  -4.4 1.00e+000 9.99e-001h  1
 112 7.2225672e+000 7.86e+000 1.59e-003  -5.5 7.95e-001  -3.9 9.27e-001 1.00e+000h  1
 113 7.1496691e+000 7.72e-001 4.75e-004  -6.0 4.02e-001  -3.5 9.95e-001 1.00e+000h  1
 114 6.9339455e+000 2.94e+000 5.78e-004  -5.3 7.75e-001  -4.0 1.00e+000 1.00e+000h  1
 115 6.7996527e+000 3.04e+000 2.07e-002  -4.1 3.73e+000  -4.5 1.00e+000 3.09e-001h  1
 116 5.5726198e+000 2.65e+001 2.69e-003  -4.2 4.48e+000  -5.0 1.00e+000 1.00e+000h  1
 117 5.1759982e+000 7.70e+000 1.43e-003  -4.6 1.77e+000  -4.5 1.00e+000 1.00e+000h  1
 118 5.0172642e+000 7.60e+000 8.44e-004  -4.7 1.08e+000  -4.1 1.00e+000 1.00e+000h  1
 119 4.6730328e+000 4.73e+000 1.35e-003  -4.2 1.77e+000  -4.6 1.00e+000 1.00e+000h  1
iter    objective    inf_pr   inf_du lg(mu)  ||d||  lg(rg) alpha_du alpha_pr  ls
 120 3.6762657e+000 4.29e+000 1.05e-003  -4.7 4.72e+000  -5.1 9.20e-001 1.00e+000h  1
 121 3.5231878e+000 2.17e+001 9.77e-003  -4.0 1.08e+001  -5.5 3.31e-001 5.97e-001h  1
 122 3.4217653e+000 1.41e+001 2.19e-003  -4.7 7.40e-001  -4.2 9.87e-001 1.00e+000h  1
 123 3.0858358e+000 4.65e+000 2.71e-004  -4.8 2.15e+000  -4.7 1.00e+000 1.00e+000h  1
 124 2.9711973e+000 3.51e+001 6.12e-003  -4.1 2.99e+000  -5.2 7.00e-001 1.00e+000h  1
 125 2.6889532e+000 1.75e+001 4.63e-003  -4.8 2.35e+000  -4.7 9.68e-001 1.00e+000h  1
 126 2.3097514e+000 1.29e+001 8.78e-004  -4.5 3.82e+000  -5.2 1.00e+000 1.00e+000h  1
 127 2.1178936e+000 5.17e+000 8.03e-003  -4.9 1.73e+000  -4.8 1.00e+000 1.00e+000h  1
 128 2.1145317e+000 1.56e+001 1.02e-001  -4.9 1.31e+000  -3.5 6.52e-001 1.00e+000h  1
 129 2.0818109e+000 7.21e-001 2.20e-003  -5.1 3.07e-001  -3.9 9.99e-001 1.00e+000h  1
iter    objective    inf_pr   inf_du lg(mu)  ||d||  lg(rg) alpha_du alpha_pr  ls
 130 2.0311472e+000 1.93e+000 5.45e-004  -4.7 6.02e-001  -4.4 1.00e+000 1.00e+000h  1
 131 1.8808943e+000 5.24e+000 8.21e-004  -4.8 1.70e+000  -4.9 1.00e+000 1.00e+000h  1
 132 2.1614899e+000 2.78e+001 1.14e-002  -4.3 4.23e+000  -5.4 3.85e-001 1.00e+000h  1
 133 2.1388593e+000 1.92e+001 9.30e-003  -4.6 1.79e+000  -4.0 6.68e-001 1.00e+000h  1
 134 2.0654603e+000 1.31e+001 3.06e-003  -4.6 1.16e+000  -4.5 1.00e+000 1.00e+000h  1
 135 2.0407452e+000 1.11e+001 2.16e-003  -4.6 8.01e-001  -4.1 1.00e+000 1.00e+000h  1
 136 1.9758936e+000 5.58e+000 1.78e-003  -4.6 6.58e-001  -4.6 1.00e+000 1.00e+000h  1
 137 1.9174357e+000 1.32e+000 1.83e-003  -5.5 5.35e-001  -4.1 9.71e-001 1.00e+000h  1
 138 1.7987761e+000 1.79e+000 7.39e-004  -5.1 1.30e+000  -4.6 1.00e+000 1.00e+000h  1
 139 1.6947889e+000 5.16e-001 6.63e-004  -4.7 1.57e+000  -5.1 1.00e+000 1.00e+000h  1
iter    objective    inf_pr   inf_du lg(mu)  ||d||  lg(rg) alpha_du alpha_pr  ls
 140 1.4120141e+000 5.48e+000 1.61e-003  -5.0 4.15e+000  -5.6 1.00e+000 1.00e+000h  1
 141 1.4632139e+000 1.16e+000 5.55e-004  -4.7 1.52e+000  -5.1 1.00e+000 1.00e+000h  1
 142 1.3419128e+000 2.00e+000 1.46e-003  -4.9 2.92e+000  -5.6 1.00e+000 1.00e+000h  1
 143 1.3202842e+000 1.84e-001 5.49e-004  -5.3 3.10e-001  -4.3 1.00e+000 1.00e+000h  1
 144 1.2525860e+000 5.06e-001 4.23e-003  -5.5 9.16e-001  -4.8 8.36e-001 1.00e+000h  1
 145 1.2240237e+000 4.71e-001 1.66e-004  -5.9 4.40e-001  -4.3 1.00e+000 1.00e+000h  1
 146 1.2101918e+000 1.99e-001 1.07e-003  -5.3 7.55e-001  -4.8 1.00e+000 8.67e-001h  1
 147 1.1854225e+000 2.01e-001 1.14e-004  -5.8 3.75e-001  -4.4 9.95e-001 1.00e+000h  1
 148 1.1892757e+000 2.95e+000 2.90e-003  -5.2 7.89e-001  -4.9 1.00e+000 7.44e-001h  1
 149 1.1367297e+000 1.61e+000 9.38e-004  -5.4 2.29e+000  -5.3 9.97e-001 1.00e+000h  1
iter    objective    inf_pr   inf_du lg(mu)  ||d||  lg(rg) alpha_du alpha_pr  ls
 150 1.1743236e+000 4.94e+000 6.93e-004  -5.0 3.17e+000  -5.8 8.65e-001 8.79e-001h  1
 151 1.1446262e+000 1.04e+000 2.89e-004  -5.1 1.11e+000  -5.4 1.00e+000 1.00e+000h  1
 152 1.0997483e+000 5.82e-001 1.22e-004  -5.5 7.22e-001  -5.0 1.00e+000 1.00e+000h  1
 153 1.0935575e+000 5.16e-001 4.99e-004  -5.2 1.32e+000  -5.4 1.00e+000 1.00e+000h  1
 154 1.0633458e+000 1.21e+000 6.06e-004  -5.5 1.09e+000  -5.0 1.00e+000 1.00e+000h  1
 155 1.0425721e+000 1.45e+000 4.60e-003  -5.9 5.45e-001  -4.6 4.53e-001 1.00e+000h  1
 156 1.0349505e+000 3.64e-001 8.63e-004  -6.0 1.76e-001  -4.2 1.00e+000 1.00e+000h  1
 157 1.0272539e+000 1.89e-001 1.16e-004  -5.7 4.60e-001  -4.6 1.00e+000 1.00e+000h  1
 158 1.0175239e+000 3.91e-001 6.88e-004  -6.3 2.08e-001  -4.2 1.00e+000 1.00e+000h  1
 159 1.0135768e+000 2.32e-001 4.34e-004  -6.6 8.88e-002  -3.8 1.00e+000 1.00e+000h  1
iter    objective    inf_pr   inf_du lg(mu)  ||d||  lg(rg) alpha_du alpha_pr  ls
 160 1.0077456e+000 6.66e-001 6.36e-004  -6.3 2.76e-001  -4.3 1.00e+000 1.00e+000h  1
 161 1.0177811e+000 1.96e+000 4.03e-003  -5.6 4.37e-001  -4.8 5.93e-001 8.36e-001h  1
 162 1.0117536e+000 3.12e-001 8.75e-004  -5.9 2.20e-001  -4.3 1.00e+000 1.00e+000h  1
 163 1.0139858e+000 3.40e-001 5.72e-004  -5.6 4.42e-001  -4.8 1.00e+000 1.00e+000h  1
 164 1.0034529e+000 6.07e+000 4.18e-003  -5.7 1.18e+000  -5.3 7.56e-001 8.24e-001h  1
 165 9.9678220e-001 1.64e+000 2.61e-003  -5.8 4.59e-001  -4.9 1.00e+000 8.82e-001h  1
 166 9.9453411e-001 8.61e-001 2.73e-003 -11.0 2.27e-001  -3.5 1.90e-001 4.93e-001h  1
 167 9.9407101e-001 6.74e-001 2.02e-003  -5.9 4.87e-001  -4.0 2.82e-001 4.71e-001h  1
 168 9.9354191e-001 4.10e-001 6.48e-003  -7.1 1.38e-001  -2.7 8.54e-001 4.71e-001h  1
 169 9.9653831e-001 2.66e-001 4.63e-003  -5.6 1.30e-001  -3.1 1.00e+000 8.50e-001h  1
iter    objective    inf_pr   inf_du lg(mu)  ||d||  lg(rg) alpha_du alpha_pr  ls
 170 9.9381329e-001 1.32e-001 1.27e-003  -6.1 5.58e-002  -3.6 1.00e+000 1.00e+000h  1
 171 9.9126925e-001 2.15e-002 3.74e-004  -6.8 3.29e-002  -3.2 1.00e+000 1.00e+000h  1
 172 9.8889579e-001 4.45e-002 2.52e-004  -6.3 5.62e-002  -3.7 1.00e+000 1.00e+000h  1
 173 9.8457946e-001 1.21e-001 9.72e-005  -6.3 1.58e-001  -4.2 1.00e+000 9.97e-001h  1
 174 9.8153838e-001 1.32e-001 4.78e-005  -6.1 3.43e-001  -4.6 1.00e+000 1.00e+000h  1
 175 9.8874387e-001 7.01e-001 7.12e-005  -5.7 7.50e-001  -5.1 1.00e+000 1.00e+000h  1
 176 9.7916782e-001 6.70e-001 7.04e-004  -5.8 1.83e+000  -5.6 1.00e+000 7.36e-001h  1
 177 1.0246721e+000 4.50e+000 2.73e-003  -5.3 3.77e+000  -6.1 4.67e-001 7.36e-001f  1
 178 1.0162579e+000 5.96e+000 1.01e-002  -5.5 9.43e-001  -4.7 4.54e-001 1.00e+000h  1
 179 1.0132070e+000 3.14e+000 6.60e-003  -5.5 3.01e-001  -4.3 1.00e+000 1.00e+000h  1
iter    objective    inf_pr   inf_du lg(mu)  ||d||  lg(rg) alpha_du alpha_pr  ls
 180 1.0070372e+000 5.52e-001 8.96e-004  -5.5 6.44e-001  -4.8 1.00e+000 1.00e+000h  1
 181 9.9998233e-001 1.02e+000 2.44e-004  -5.5 9.66e-001  -5.3 1.00e+000 8.13e-001h  1
 182 9.9745708e-001 4.78e-001 6.89e-005  -5.5 2.57e-001  -4.8 1.00e+000 1.00e+000h  1
 183 9.9660395e-001 2.77e-001 1.88e-004  -5.5 9.10e-002  -4.4 1.00e+000 1.00e+000h  1
 184 9.9461546e-001 1.72e+000 3.34e-003  -5.5 2.79e-001  -4.9 1.00e+000 1.00e+000h  1
 185 9.9095043e-001 1.14e-001 1.65e-003  -5.5 7.35e-001  -5.4 1.00e+000 1.00e+000h  1
 186 9.8548255e-001 3.56e-001 1.61e-004  -5.5 1.78e+000  -5.8 1.00e+000 9.97e-001h  1
 187 9.7930900e-001 5.36e-001 8.19e-005  -5.5 3.51e+000  -6.3 1.00e+000 1.00e+000h  1
 188 9.7779425e-001 2.97e+000 2.66e-003  -5.5 1.53e+001  -6.8 1.00e+000 3.58e-001h  1
 189 9.6613002e-001 1.16e+001 1.77e-003  -5.7 1.65e+001  -7.3 4.05e-001 4.88e-001h  1
iter    objective    inf_pr   inf_du lg(mu)  ||d||  lg(rg) alpha_du alpha_pr  ls
 190 9.4949133e-001 2.90e+000 1.90e-003  -6.1 5.11e-001  -5.0 1.00e+000 1.00e+000h  1
 191 9.5239201e-001 8.52e-001 6.93e-004  -5.8 2.76e-001  -4.6 1.00e+000 1.00e+000h  1
 192 9.4450690e-001 5.01e+000 1.22e-003  -6.0 6.59e-001  -5.1 1.00e+000 1.00e+000h  1
 193 9.3964785e-001 2.73e-001 1.24e-004  -6.2 2.20e-001  -4.7 9.83e-001 1.00e+000h  1
 194 9.3172052e-001 2.70e+000 4.81e-004  -6.3 4.75e-001  -5.1 1.00e+000 1.00e+000h  1
 195 9.3367798e-001 1.11e+000 8.41e-005  -6.1 6.93e-001  -5.6 1.00e+000 1.00e+000h  1
 196 9.2754866e-001 6.45e-001 6.13e-005  -6.4 2.99e-001  -5.2 1.00e+000 1.00e+000h  1
 197 9.2456601e-001 1.21e-001 1.02e-003  -6.6 1.53e-001  -4.8 8.13e-001 1.00e+000h  1
 198 9.2211866e-001 5.78e-001 2.95e-004  -6.6 4.31e-001  -5.2 1.00e+000 1.00e+000h  1
 199 9.2561512e-001 1.95e-001 3.76e-004  -6.3 4.31e-001  -4.8 9.53e-001 1.00e+000h  1
iter    objective    inf_pr   inf_du lg(mu)  ||d||  lg(rg) alpha_du alpha_pr  ls
 200 9.2307635e-001 3.15e-001 3.06e-004  -6.5 5.29e-001  -5.3 1.00e+000 1.00e+000h  1
 201 9.2088794e-001 1.53e-001 2.69e-004  -6.7 2.37e-001  -4.9 1.00e+000 1.00e+000h  1
 202 9.2214579e-001 4.37e-001 5.65e-004  -6.5 4.61e-001  -5.3 1.00e+000 1.00e+000h  1
 203 9.2024435e-001 1.83e-001 5.74e-005  -6.7 2.29e-001  -4.9 1.00e+000 1.00e+000h  1
 204 9.2192253e-001 2.36e-001 1.48e-004  -6.4 4.43e-001  -5.4 1.00e+000 1.00e+000h  1
 205 9.2098523e-001 5.87e-002 8.43e-005  -6.5 1.90e-001  -5.0 1.00e+000 1.00e+000h  1
 206 9.2050204e-001 1.61e-001 6.65e-005  -6.5 4.58e-001  -5.4 1.00e+000 1.00e+000h  1
 207 9.1844265e-001 8.45e-002 2.02e-004  -6.8 1.73e-001  -5.0 1.00e+000 1.00e+000h  1
 208 9.1753632e-001 4.77e-002 1.65e-004  -7.1 1.04e-001  -4.6 9.96e-001 1.00e+000h  1
 209 9.1857093e-001 2.12e+000 1.33e-003  -6.7 1.34e+000  -5.1 1.00e+000 9.12e-001h  1
iter    objective    inf_pr   inf_du lg(mu)  ||d||  lg(rg) alpha_du alpha_pr  ls
 210 9.1817387e-001 1.40e-001 5.01e-004  -6.8 3.59e-001  -4.6 9.79e-001 1.00e+000h  1
 211 9.1978191e-001 4.86e-002 2.33e-004  -6.5 3.55e-001  -5.1 1.00e+000 1.00e+000h  1
 212 9.1915878e-001 4.70e-001 1.04e-003  -6.6 4.35e-001  -5.6 1.00e+000 7.46e-001h  1
 213 9.1890056e-001 2.07e-001 1.56e-005  -6.6 1.57e-001  -5.2 1.00e+000 1.00e+000h  1
 214 9.1741704e-001 5.15e-002 3.30e-005  -6.9 7.31e-002  -4.8 1.00e+000 1.00e+000h  1
 215 9.1618579e-001 1.84e-001 1.25e-004  -7.1 2.18e-001  -5.2 1.00e+000 1.00e+000h  1
 216 9.1707600e-001 1.17e-001 1.98e-003  -6.8 5.37e-001  -5.7 9.81e-001 7.52e-001h  1
 217 9.2055770e-001 6.40e-001 5.61e-003  -6.4 1.35e+000  -6.2 6.96e-001 1.00e+000h  1
 218 9.1946254e-001 9.11e-002 8.22e-004  -6.6 2.24e-001  -4.9 1.00e+000 9.25e-001h  1
 219 9.1886901e-001 3.24e-002 3.89e-004  -6.6 1.72e-001  -5.3 1.00e+000 1.00e+000h  1
iter    objective    inf_pr   inf_du lg(mu)  ||d||  lg(rg) alpha_du alpha_pr  ls
 220 9.1857360e-001 4.91e-002 4.78e-005  -6.6 4.97e-001  -5.8 1.00e+000 1.00e+000h  1
 221 9.1851391e-001 4.07e-002 1.17e-005  -6.6 1.83e-001  -5.4 1.00e+000 1.00e+000h  1
 222 9.1624429e-001 6.39e-001 1.92e-004  -6.9 6.01e-001  -5.9 1.00e+000 1.00e+000h  1
 223 9.1592536e-001 4.10e-001 1.18e-003  -7.0 1.70e+000  -6.3 1.00e+000 3.69e-001h  1
 224 9.1871678e-001 3.64e+000 6.63e-003  -6.3 1.01e+001  -6.8 1.62e-001 5.03e-001f  1
 225 9.1839243e-001 1.95e+000 5.54e-003  -6.9 1.63e+000  -3.7 9.29e-002 4.67e-001h  1
 226 9.1805020e-001 1.10e+000 3.12e-003  -6.9 8.61e-001  -4.2 3.39e-001 4.35e-001h  1
 227 9.1765076e-001 6.37e-001 1.79e-003  -6.9 5.57e-001  -4.6 3.04e-001 4.23e-001h  1
 228 9.1720380e-001 1.09e-002 4.73e-004  -6.9 3.16e-001  -4.2 1.00e+000 1.00e+000h  1
 229 9.1653022e-001 4.13e-003 3.37e-004  -7.2 4.48e-002  -3.8 1.00e+000 1.00e+000h  1
iter    objective    inf_pr   inf_du lg(mu)  ||d||  lg(rg) alpha_du alpha_pr  ls
 230 9.1656429e-001 3.08e-003 8.28e-005  -7.0 4.33e-002  -4.3 1.00e+000 1.00e+000h  1
 231 9.1630392e-001 2.33e-002 5.54e-004  -7.1 1.93e-001  -4.7 7.77e-001 4.34e-001h  1
 232 9.1678306e-001 2.69e-002 1.37e-004  -6.8 3.17e-001  -5.2 1.00e+000 1.00e+000f  1
 233 9.1645793e-001 2.41e-002 5.74e-004  -6.9 3.78e-001  -5.7 1.00e+000 4.31e-001h  1
 234 9.1603148e-001 4.08e-001 3.43e-004  -6.9 1.01e+000  -6.2 1.00e+000 6.42e-001h  1
 235 9.1815918e-001 3.16e-001 2.55e-004  -6.5 1.77e+000  -6.6 7.42e-001 7.91e-001f  1
 236 9.1766551e-001 1.96e-002 1.80e-004  -6.7 6.43e-002  -4.4 1.00e+000 1.00e+000h  1
 237 9.1740695e-001 6.57e-003 4.49e-005  -6.7 3.66e-002  -4.9 1.00e+000 1.00e+000h  1
 238 9.1722593e-001 5.46e-002 3.13e-004  -6.7 1.23e-001  -5.4 1.00e+000 1.00e+000h  1
 239 9.1709872e-001 1.29e-002 7.17e-005  -6.7 2.89e-001  -5.8 1.00e+000 1.00e+000h  1
iter    objective    inf_pr   inf_du lg(mu)  ||d||  lg(rg) alpha_du alpha_pr  ls
 240 9.1698822e-001 3.31e-002 1.08e-005  -6.7 8.03e-001  -6.3 1.00e+000 1.00e+000h  1
 241 9.1686735e-001 1.62e-001 6.51e-005  -6.7 2.16e+000  -6.8 1.00e+000 8.69e-001h  1
 242 9.1677688e-001 3.60e-001 3.96e-004  -6.7 6.89e+000  -7.3 1.00e+000 4.91e-001h  1
 243 9.1672165e-001 6.72e-001 9.84e-004  -6.7 2.83e+001  -7.8 1.00e+000 2.40e-001h  1
 244 9.1662856e-001 8.91e-001 2.31e-004  -6.7 8.30e+000  -7.3 1.00e+000 1.00e+000h  1
 245 9.1661538e-001 7.94e-001 4.17e-005  -6.7 3.24e+000  -6.9 1.00e+000 1.00e+000h  1
 246 9.1660789e-001 4.72e-001 7.00e-005  -6.7 1.24e+000  -6.5 6.44e-001 1.00e+000h  1
 247 9.1660535e-001 6.46e-001 7.39e-005  -6.7 1.72e+001  -6.9 1.52e-001 6.88e-002h  2
 248 9.1659449e-001 1.87e+000 2.54e-004  -6.7 1.42e+000  -6.5 1.00e+000 1.00e+000h  1
 249 9.1657648e-001 1.13e-001 3.99e-005  -6.7 4.48e+000  -7.0 1.00e+000 1.00e+000h  1
iter    objective    inf_pr   inf_du lg(mu)  ||d||  lg(rg) alpha_du alpha_pr  ls
 250 9.1656525e-001 2.18e-001 2.37e-003  -6.7 1.59e+001  -7.5 1.00e+000 3.28e-001h  1
 251 9.1654959e-001 9.90e-001 1.72e-003  -6.7 7.26e+000  -8.0 8.69e-001 5.65e-001h  1
 252 9.1654725e-001 4.73e-001 3.54e-005  -6.7 1.39e+000  -5.7 1.00e+000 1.00e+000h  1
 253 9.1654334e-001 1.18e+000 4.56e-005  -6.7 6.86e-001  -6.2 1.00e+000 9.68e-001h  1
 254 9.1653647e-001 2.24e+000 6.46e-004  -6.7 3.23e+000  -6.7 5.36e-001 1.00e+000h  1
 255 9.1653224e-001 1.08e-001 2.33e-005  -6.7 1.27e+000  -6.3 1.00e+000 1.00e+000h  1
 256 9.1652295e-001 9.51e-001 3.43e-004  -6.7 3.06e+001    -  1.76e-001 1.04e-001h  1
 257 9.1650970e-001 7.50e-001 3.86e-004  -6.7 1.73e+001    -  5.57e-001 5.57e-001h  1
 258 9.1650923e-001 6.96e-001 1.22e-003  -6.7 3.97e+001    -  2.97e-001 1.02e-001h  1
 259 9.1650583e-001 1.71e+000 7.36e-004  -6.7 9.76e+000    -  1.00e+000 1.00e+000h  1
iter    objective    inf_pr   inf_du lg(mu)  ||d||  lg(rg) alpha_du alpha_pr  ls
 260 9.1650628e-001 2.92e-001 2.38e-004  -6.7 5.77e+000    -  1.00e+000 1.00e+000h  1
 261 9.1509511e-001 4.54e-001 2.06e-004  -6.9 5.94e+000    -  1.00e+000 1.00e+000h  1
 262 9.1376948e-001 4.12e-001 1.24e-004  -7.2 7.77e+000    -  1.00e+000 1.00e+000h  1
 263 9.1348164e-001 4.62e-002 2.42e-005  -7.4 4.45e-001  -5.8 1.00e+000 1.00e+000h  1
 264 9.1396218e-001 1.02e-002 1.78e-006  -7.1 5.97e-002  -5.4 1.00e+000 1.00e+000h  1
 265 9.1349898e-001 7.80e-002 3.90e-005  -7.4 1.75e-001  -5.9 1.00e+000 1.00e+000h  1
 266 9.1338180e-001 3.52e-002 3.04e-004  -7.4 1.29e-001  -5.5 9.48e-001 1.00e+000h  1
 267 9.1319043e-001 3.40e-001 2.56e-005  -7.6 4.93e-001  -5.9 1.00e+000 1.00e+000h  1
 268 9.1305036e-001 5.12e-001 3.83e-005  -7.8 4.35e-001  -6.4 9.90e-001 1.00e+000h  1
 269 9.1296528e-001 2.99e-001 3.76e-005  -8.0 7.60e-001  -6.9 9.97e-001 1.00e+000h  1
iter    objective    inf_pr   inf_du lg(mu)  ||d||  lg(rg) alpha_du alpha_pr  ls
 270 9.1308163e-001 1.97e-001 3.15e-003  -7.6 1.25e+000  -7.4 1.00e+000 5.56e-001h  1
 271 9.1356252e-001 3.84e-002 6.95e-004  -7.2 2.15e+000  -7.8 8.29e-001 8.17e-001h  1
 272 9.1349576e-001 6.02e-001 3.02e-004  -7.4 3.95e+000    -  6.49e-001 5.08e-001h  1
 273 9.1343180e-001 3.85e-001 1.48e-004  -7.4 4.12e+000    -  1.00e+000 1.00e+000h  1
 274 9.1343206e-001 3.17e-001 1.17e-004  -7.4 7.59e+000    -  1.00e+000 1.00e+000h  1
 275 9.1343195e-001 2.50e-001 8.76e-005  -7.4 1.25e+001    -  1.00e+000 1.00e+000h  1
 276 9.1343195e-001 1.78e-002 7.12e-006  -7.4 5.58e+000    -  1.00e+000 1.00e+000h  1
 277 9.1311245e-001 1.30e-001 4.75e-005  -7.7 2.89e+000    -  1.00e+000 1.00e+000h  1
 278 9.1305157e-001 3.76e-002 2.01e-005  -7.8 1.99e+000    -  1.00e+000 1.00e+000h  1
 279 9.1291822e-001 6.96e-002 3.42e-005  -8.1 2.95e+000    -  1.00e+000 1.00e+000h  1
iter    objective    inf_pr   inf_du lg(mu)  ||d||  lg(rg) alpha_du alpha_pr  ls
 280 9.1285804e-001 3.87e-002 2.27e-005  -8.4 2.86e+000    -  1.00e+000 1.00e+000h  1
 281 9.1282727e-001 1.51e-002 9.48e-006  -8.7 1.72e+000    -  1.00e+000 1.00e+000h  1
 282 9.1281106e-001 5.43e-003 3.46e-006  -9.0 1.42e+000    -  1.00e+000 1.00e+000h  1
 283 9.1280193e-001 4.96e-003 1.43e-006  -9.5 1.10e+000    -  1.00e+000 1.00e+000h  1
Reallocating memory for MA57: lfact (6704488)
 284 9.1279945e-001 2.08e-003 2.45e-007  -9.9 4.59e-001    -  1.00e+000 1.00e+000h  1
 285 9.1279856e-001 4.43e-004 4.53e-008 -10.3 1.36e-001    -  1.00e+000 1.00e+000h  1
 286 9.1279823e-001 1.04e-004 8.75e-009 -10.6 4.76e-002    -  1.00e+000 1.00e+000h  1
 287 9.1279806e-001 3.51e-005 2.48e-009 -11.0 2.40e-002    -  1.00e+000 1.00e+000h  1
 288 9.1279806e-001 2.41e-006 3.08e-011 -11.0 5.31e-003    -  1.00e+000 1.00e+000h  1

Number of Iterations....: 288

                                   (scaled)                 (unscaled)
Objective...............:  9.1279806385436946e-001   9.1279806385436946e-001
Dual infeasibility......:  3.0831345443562413e-011   3.0831345443562413e-011
Constraint violation....:  2.3023076536466120e-007   2.4097921595966909e-006
Complementarity.........:  1.2005932626056438e-011   1.2005932626056438e-011
Overall NLP error.......:  2.3023076536466120e-007   2.4097921595966909e-006


Number of objective function evaluations             = 292
Number of objective gradient evaluations             = 289
Number of equality constraint evaluations            = 292
Number of inequality constraint evaluations          = 292
Number of equality constraint Jacobian evaluations   = 289
Number of inequality constraint Jacobian evaluations = 289
Number of Lagrangian Hessian evaluations             = 288
Total CPU secs in IPOPT (w/o function evaluations)   =    535.180
Total CPU secs in NLP function evaluations           =     67.694

EXIT: Optimal Solution Found.
